50
    1    47    55
    2   105    96
    3    51    46
    4    31    27
    5    12     8
    6    72    65
    7    86    81
    8    92    95
    9    87    93
   10    16    22
   11   103    95
   12    83    79
   13   106    96
   14    56    56
   15    24    28
   16    32    28
   17    37    45
   18    88    88
   19    55    61
   20    93    90
   21    72    77
   22     8    11
   23    46    56
   24    19    14
   25    48    56
   26    46    36
   27    86    78
   28   100    95
   29     1     5
   30    89    87
   31    37    33
   32    14     7
   33     1     7
   34    79    89
   35   108   100
   36    32    37
   37     4    12
   38    84    80
   39    55    56
   40     5     6
   41    52    51
   42    80    77
   43    97    90
   44    79    73
   45    41    39
   46    54    58
   47    10     9
   48    21    29
   49    12    19
   50    56    52
2244
